Nb of jobs, Nb of Machines, Time seed, Machine seed, Upper bound, Lower bound
5,10,-1,-1,-1,-1
Times
77,88,8,79,54,81,95,58,10,62
45,71,31,51,86,11,63,5,1,3
3,72,73,42,32,24,90,28,17,90
40,59,32,57,96,95,80,90,32,46
64,35,48,50,72,72,34,50,71,68
Machines
9,10,3,8,1,5,7,6,4,2
7,4,3,5,9,1,10,6,8,2
2,9,8,1,3,4,6,5,7,10
6,7,3,1,8,2,5,9,10,4
3,9,4,8,2,7,5,6,10,1
